45
1 0 2
2 0 1
2 1 4
3 0 3
3 1 1
3 2 2
4 0 3
4 1 4
4 2 1
4 3 2
5 0 5
5 1 4
5 2 3
5 3 1
5 4 3
6 0 1
6 1 4
6 2 4
6 3 4
6 4 3
6 5 5
7 0 3
7 1 2
7 2 5
7 3 1
7 4 4
7 5 1
7 6 3
8 0 3
8 1 5
8 2 2
8 3 5
8 4 2
8 5 1
8 6 5
8 7 2
9 0 3
9 1 5
9 2 4
9 3 4
9 4 3
9 5 5
9 6 1
9 7 4
9 8 2
10 0 1
10 1 5
10 2 5
10 3 4
10 4 5
10 5 3
10 6 5
10 7 3
10 8 5
10 9 3
11 0 2
11 1 4
11 2 3
11 3 2
11 4 1
11 5 2
11 6 3
11 7 3
11 8 3
11 9 5
11 10 1
12 0 3
12 1 2
12 2 1
12 3 3
12 4 4
12 5 1
12 6 4
12 7 2
12 8 2
12 9 4
12 10 4
12 11 4
13 0 3
13 1 3
13 2 4
13 3 1
13 4 3
13 5 3
13 6 4
13 7 3
13 8 2
13 9 4
13 10 5
13 11 2
13 12 1
14 0 1
14 1 4
14 2 2
14 3 5
14 4 1
14 5 1
14 6 2
14 7 2
14 8 2
14 9 1
14 10 5
14 11 2
14 12 4
14 13 5
15 0 5
15 1 5
15 2 5
15 3 2
15 4 1
15 5 4
15 6 5
15 7 1
15 8 1
15 9 5
15 10 1
15 11 1
15 12 3
15 13 2
15 14 4
16 0 3
16 1 3
16 2 1
16 3 2
16 4 2
16 5 4
16 6 3
16 7 4
16 8 1
16 9 2
16 10 4
16 11 5
16 12 2
16 13 1
16 14 5
16 15 3
17 0 1
17 1 1
17 2 3
17 3 4
17 4 2
17 5 3
17 6 3
17 7 2
17 8 5
17 9 3
17 10 1
17 11 4
17 12 2
17 13 1
17 14 4
17 15 5
17 16 3
18 0 5
18 1 1
18 2 5
18 3 5
18 4 5
18 5 1
18 6 4
18 7 2
18 8 1
18 9 3
18 10 4
18 11 1
18 12 2
18 13 3
18 14 2
18 15 2
18 16 5
18 17 1
19 0 5
19 1 5
19 2 3
19 3 2
19 4 1
19 5 3
19 6 3
19 7 3
19 8 2
19 9 5
19 10 5
19 11 1
19 12 4
19 13 5
19 14 1
19 15 1
19 16 5
19 17 5
19 18 5
20 0 1
20 1 3
20 2 3
20 3 4
20 4 3
20 5 3
20 6 3
20 7 2
20 8 5
20 9 5
20 10 2
20 11 4
20 12 1
20 13 2
20 14 4
20 15 5
20 16 5
20 17 4
20 18 5
20 19 4
21 0 4
21 1 1
21 2 4
21 3 3
21 4 1
21 5 3
21 6 3
21 7 4
21 8 1
21 9 4
21 10 4
21 11 2
21 12 3
21 13 5
21 14 5
21 15 4
21 16 1
21 17 5
21 18 3
21 19 4
21 20 2
22 0 4
22 1 5
22 2 1
22 3 4
22 4 5
22 5 2
22 6 5
22 7 2
22 8 3
22 9 5
22 10 1
22 11 2
22 12 5
22 13 5
22 14 4
22 15 3
22 16 5
22 17 4
22 18 2
22 19 5
22 20 2
22 21 1
23 0 5
23 1 1
23 2 3
23 3 2
23 4 4
23 5 3
23 6 5
23 7 2
23 8 4
23 9 3
23 10 4
23 11 4
23 12 3
23 13 3
23 14 4
23 15 3
23 16 3
23 17 1
23 18 3
23 19 2
23 20 2
23 21 2
23 22 3
24 0 1
24 1 3
24 2 3
24 3 1
24 4 5
24 5 3
24 6 1
24 7 2
24 8 5
24 9 2
24 10 4
24 11 5
24 12 4
24 13 3
24 14 1
24 15 3
24 16 4
24 17 3
24 18 2
24 19 5
24 20 3
24 21 1
24 22 1
24 23 4
25 0 5
25 1 1
25 2 5
25 3 2
25 4 2
25 5 2
25 6 2
25 7 3
25 8 5
25 9 3
25 10 5
25 11 4
25 12 5
25 13 4
25 14 2
25 15 1
25 16 4
25 17 2
25 18 5
25 19 4
25 20 3
25 21 2
25 22 2
25 23 3
25 24 2
26 0 5
26 1 2
26 2 4
26 3 4
26 4 4
26 5 4
26 6 3
26 7 4
26 8 3
26 9 4
26 10 4
26 11 5
26 12 4
26 13 2
26 14 2
26 15 2
26 16 2
26 17 1
26 18 5
26 19 3
26 20 5
26 21 5
26 22 4
26 23 3
26 24 5
26 25 5
27 0 5
27 1 3
27 2 1
27 3 4
27 4 1
27 5 2
27 6 3
27 7 3
27 8 3
27 9 3
27 10 2
27 11 4
27 12 2
27 13 4
27 14 3
27 15 2
27 16 4
27 17 5
27 18 2
27 19 3
27 20 2
27 21 3
27 22 5
27 23 1
27 24 2
27 25 4
27 26 4
28 0 1
28 1 4
28 2 5
28 3 4
28 4 1
28 5 3
28 6 4
28 7 3
28 8 5
28 9 4
28 10 2
28 11 1
28 12 4
28 13 1
28 14 2
28 15 3
28 16 2
28 17 3
28 18 1
28 19 4
28 20 5
28 21 2
28 22 4
28 23 4
28 24 3
28 25 1
28 26 5
28 27 4
29 0 1
29 1 3
29 2 5
29 3 1
29 4 4
29 5 3
29 6 1
29 7 3
29 8 3
29 9 5
29 10 5
29 11 2
29 12 1
29 13 5
29 14 2
29 15 3
29 16 1
29 17 3
29 18 5
29 19 5
29 20 4
29 21 5
29 22 1
29 23 3
29 24 5
29 25 2
29 26 2
29 27 2
29 28 4
30 0 4
30 1 2
30 2 2
30 3 3
30 4 2
30 5 4
30 6 5
30 7 1
30 8 2
30 9 5
30 10 1
30 11 5
30 12 1
30 13 5
30 14 2
30 15 3
30 16 2
30 17 4
30 18 3
30 19 3
30 20 3
30 21 2
30 22 3
30 23 5
30 24 4
30 25 2
30 26 2
30 27 4
30 28 1
30 29 4
31 0 4
31 1 3
31 2 5
31 3 3
31 4 3
31 5 4
31 6 3
31 7 2
31 8 2
31 9 4
31 10 3
31 11 2
31 12 3
31 13 3
31 14 5
31 15 4
31 16 2
31 17 2
31 18 5
31 19 5
31 20 4
31 21 5
31 22 3
31 23 1
31 24 3
31 25 3
31 26 5
31 27 3
31 28 1
31 29 2
31 30 5
32 0 5
32 1 2
32 2 2
32 3 2
32 4 3
32 5 3
32 6 4
32 7 1
32 8 5
32 9 1
32 10 5
32 11 2
32 12 2
32 13 2
32 14 1
32 15 3
32 16 5
32 17 3
32 18 4
32 19 4
32 20 3
32 21 2
32 22 3
32 23 5
32 24 1
32 25 4
32 26 5
32 27 2
32 28 4
32 29 4
32 30 1
32 31 2
33 0 3
33 1 1
33 2 1
33 3 3
33 4 4
33 5 5
33 6 1
33 7 5
33 8 2
33 9 2
33 10 2
33 11 1
33 12 2
33 13 5
33 14 3
33 15 5
33 16 2
33 17 2
33 18 5
33 19 3
33 20 3
33 21 4
33 22 2
33 23 4
33 24 1
33 25 4
33 26 4
33 27 1
33 28 1
33 29 3
33 30 5
33 31 4
33 32 1
34 0 4
34 1 3
34 2 2
34 3 3
34 4 4
34 5 3
34 6 5
34 7 3
34 8 5
34 9 3
34 10 5
34 11 4
34 12 1
34 13 3
34 14 3
34 15 1
34 16 5
34 17 1
34 18 1
34 19 5
34 20 1
34 21 3
34 22 2
34 23 5
34 24 5
34 25 2
34 26 3
34 27 5
34 28 3
34 29 2
34 30 3
34 31 4
34 32 4
34 33 4
35 0 5
35 1 2
35 2 2
35 3 4
35 4 2
35 5 3
35 6 1
35 7 5
35 8 1
35 9 3
35 10 5
35 11 5
35 12 2
35 13 3
35 14 1
35 15 2
35 16 2
35 17 5
35 18 4
35 19 5
35 20 5
35 21 5
35 22 1
35 23 4
35 24 2
35 25 3
35 26 3
35 27 2
35 28 3
35 29 3
35 30 2
35 31 1
35 32 4
35 33 2
35 34 4
36 0 1
36 1 1
36 2 1
36 3 4
36 4 5
36 5 2
36 6 4
36 7 2
36 8 5
36 9 2
36 10 3
36 11 1
36 12 1
36 13 5
36 14 3
36 15 5
36 16 3
36 17 3
36 18 5
36 19 2
36 20 3
36 21 5
36 22 5
36 23 2
36 24 3
36 25 4
36 26 1
36 27 2
36 28 4
36 29 5
36 30 5
36 31 4
36 32 4
36 33 1
36 34 1
36 35 4
37 0 4
37 1 5
37 2 1
37 3 3
37 4 2
37 5 2
37 6 5
37 7 5
37 8 2
37 9 3
37 10 4
37 11 5
37 12 3
37 13 5
37 14 2
37 15 5
37 16 2
37 17 3
37 18 2
37 19 4
37 20 1
37 21 4
37 22 4
37 23 5
37 24 2
37 25 3
37 26 3
37 27 2
37 28 3
37 29 5
37 30 3
37 31 1
37 32 4
37 33 3
37 34 2
37 35 1
37 36 2
38 0 2
38 1 4
38 2 3
38 3 4
38 4 1
38 5 4
38 6 3
38 7 4
38 8 3
38 9 4
38 10 1
38 11 2
38 12 3
38 13 1
38 14 2
38 15 4
38 16 1
38 17 4
38 18 4
38 19 2
38 20 2
38 21 2
38 22 5
38 23 4
38 24 1
38 25 4
38 26 4
38 27 2
38 28 5
38 29 3
38 30 3
38 31 5
38 32 2
38 33 3
38 34 3
38 35 1
38 36 5
38 37 3
39 0 2
39 1 4
39 2 5
39 3 2
39 4 1
39 5 2
39 6 4
39 7 5
39 8 4
39 9 3
39 10 5
39 11 5
39 12 1
39 13 3
39 14 2
39 15 1
39 16 2
39 17 2
39 18 1
39 19 2
39 20 3
39 21 4
39 22 3
39 23 2
39 24 4
39 25 2
39 26 2
39 27 1
39 28 5
39 29 5
39 30 3
39 31 4
39 32 4
39 33 5
39 34 4
39 35 3
39 36 2
39 37 4
39 38 4
40 0 2
40 1 2
40 2 3
40 3 2
40 4 5
40 5 4
40 6 3
40 7 5
40 8 5
40 9 4
40 10 5
40 11 5
40 12 5
40 13 5
40 14 3
40 15 2
40 16 5
40 17 5
40 18 2
40 19 4
40 20 2
40 21 5
40 22 5
40 23 4
40 24 3
40 25 4
40 26 3
40 27 5
40 28 3
40 29 5
40 30 5
40 31 2
40 32 5
40 33 1
40 34 4
40 35 5
40 36 1
40 37 5
40 38 3
40 39 4
41 0 5
41 1 5
41 2 3
41 3 2
41 4 4
41 5 1
41 6 1
41 7 2
41 8 4
41 9 4
41 10 2
41 11 2
41 12 1
41 13 2
41 14 2
41 15 2
41 16 4
41 17 2
41 18 2
41 19 4
41 20 2
41 21 1
41 22 4
41 23 5
41 24 3
41 25 3
41 26 4
41 27 2
41 28 4
41 29 1
41 30 1
41 31 3
41 32 4
41 33 3
41 34 5
41 35 3
41 36 5
41 37 2
41 38 5
41 39 4
41 40 4
42 0 4
42 1 2
42 2 1
42 3 1
42 4 2
42 5 3
42 6 4
42 7 4
42 8 1
42 9 5
42 10 4
42 11 3
42 12 2
42 13 3
42 14 1
42 15 2
42 16 3
42 17 1
42 18 4
42 19 5
42 20 4
42 21 4
42 22 4
42 23 5
42 24 3
42 25 3
42 26 2
42 27 4
42 28 1
42 29 1
42 30 4
42 31 1
42 32 1
42 33 3
42 34 3
42 35 4
42 36 2
42 37 2
42 38 2
42 39 2
42 40 3
42 41 4
43 0 1
43 1 2
43 2 5
43 3 4
43 4 2
43 5 4
43 6 3
43 7 2
43 8 1
43 9 5
43 10 5
43 11 2
43 12 5
43 13 2
43 14 1
43 15 5
43 16 4
43 17 5
43 18 2
43 19 2
43 20 1
43 21 5
43 22 1
43 23 4
43 24 5
43 25 4
43 26 5
43 27 1
43 28 4
43 29 5
43 30 5
43 31 5
43 32 1
43 33 1
43 34 4
43 35 4
43 36 4
43 37 2
43 38 4
43 39 3
43 40 2
43 41 3
43 42 5
44 0 4
44 1 4
44 2 3
44 3 2
44 4 3
44 5 2
44 6 3
44 7 3
44 8 4
44 9 3
44 10 4
44 11 1
44 12 2
44 13 5
44 14 4
44 15 3
44 16 5
44 17 5
44 18 5
44 19 4
44 20 5
44 21 1
44 22 2
44 23 3
44 24 2
44 25 3
44 26 3
44 27 2
44 28 2
44 29 4
44 30 3
44 31 5
44 32 1
44 33 3
44 34 3
44 35 1
44 36 2
44 37 5
44 38 5
44 39 2
44 40 3
44 41 4
44 42 4
44 43 1
